
Gurobi 12.0.3 (linux64) logging started Thu Aug 21 02:41:47 2025

Set parameter LogFile to value "logs/instance-07.txt"
Gurobi Optimizer version 12.0.3 build v12.0.3rc0 (linux64 - "Ubuntu 24.04.3 LTS")

CPU model: Intel(R) Core(TM) i5-8250U CPU @ 1.60GHz, instruction set [SSE2|AVX|AVX2]
Thread count: 4 physical cores, 8 logical processors, using up to 8 threads

Non-default parameters:
TimeLimit  900

Optimize a model with 14950 rows, 5050 columns and 39896 nonzeros
Model fingerprint: 0xfb7ce998
Variable types: 0 continuous, 5050 integer (5050 binary)
Coefficient statistics:
  Matrix range     [1e+00, 1e+00]
  Objective range  [1e+00, 1e+01]
  Bounds range     [1e+00, 1e+00]
  RHS range        [1e+00, 1e+00]
Found heuristic solution: objective -735.0000000
Found heuristic solution: objective 8.0000000
Presolve removed 7827 rows and 234 columns
Presolve time: 0.28s
Presolved: 7123 rows, 4816 columns, 21701 nonzeros
Variable types: 0 continuous, 4816 integer (4816 binary)
Found heuristic solution: objective 82.0000000

Root relaxation: objective 6.261000e+03, 4864 iterations, 0.74 seconds (0.35 work units)

    Nodes    |    Current Node    |     Objective Bounds      |     Work
 Expl Unexpl |  Obj  Depth IntInf | Incumbent    BestBd   Gap | It/Node Time

     0     0 6261.00000    0 2407   82.00000 6261.00000  7535%     -    1s
H    0     0                     543.0000000 6261.00000  1053%     -    1s
H    0     0                     641.0000000 6261.00000   877%     -    1s
     0     0 5318.50000    0 2350  641.00000 5318.50000   730%     -    4s
     0     0 4216.00000    0 2751  641.00000 4216.00000   558%     -    6s
     0     0 4064.50000    0 2889  641.00000 4064.50000   534%     -    8s
     0     0 4054.43750    0 2993  641.00000 4054.43750   533%     -    8s
     0     0 4052.85000    0 2981  641.00000 4052.85000   532%     -    8s
     0     0 4052.61111    0 2980  641.00000 4052.61111   532%     -    8s
H    0     0                     670.0000000 3442.76461   414%     -   18s
H    0     0                     675.0000000 3442.76461   410%     -   18s
H    0     0                     767.0000000 3442.76461   349%     -   18s
H    0     0                     839.0000000 3442.76461   310%     -   18s
H    0     0                     890.0000000 3442.76461   287%     -   18s
H    0     0                     952.0000000 3442.76461   262%     -   18s
H    0     0                     998.0000000 3442.76461   245%     -   18s
     0     0 3442.76461    0 2857  998.00000 3442.76461   245%     -   19s
H    0     0                    1092.0000000 2871.58362   163%     -   45s
H    0     0                    1128.0000000 2871.58362   155%     -   45s
H    0     0                    1209.0000000 2871.58362   138%     -   45s
H    0     0                    1248.0000000 2871.58362   130%     -   45s
H    0     0                    1279.0000000 2871.58362   125%     -   45s
H    0     0                    1333.0000000 2871.58362   115%     -   45s
H    0     0                    1394.0000000 2871.58362   106%     -   45s
H    0     0                    1401.0000000 2871.58362   105%     -   45s
H    0     0                    1413.0000000 2871.58362   103%     -   45s
H    0     0                    1425.0000000 2871.58362   102%     -   45s
H    0     0                    1426.0000000 2871.58362   101%     -   45s
H    0     0                    1428.0000000 2871.58362   101%     -   45s
H    0     0                    1433.0000000 2871.58362   100%     -   45s
H    0     0                    1456.0000000 2871.58362  97.2%     -   45s
H    0     0                    1457.0000000 2871.58362  97.1%     -   45s
     0     0 2871.58362    0 3615 1457.00000 2871.58362  97.1%     -   45s
H    0     0                    1461.0000000 2660.58591  82.1%     -   82s
H    0     0                    1463.0000000 2660.58591  81.9%     -   82s
H    0     0                    1465.0000000 2660.58591  81.6%     -   82s
     0     0 2660.58591    0 4210 1465.00000 2660.58591  81.6%     -   84s
H    0     0                    1475.0000000 2571.22653  74.3%     -  114s
     0     0 2571.22653    0 4279 1475.00000 2571.22653  74.3%     -  117s
     0     0 2539.10015    0 4319 1475.00000 2539.10015  72.1%     -  136s
     0     0 2529.05504    0 4334 1475.00000 2529.05504  71.5%     -  146s
     0     0 2525.33159    0 4360 1475.00000 2525.33159  71.2%     -  152s
     0     0 2523.89145    0 4364 1475.00000 2523.89145  71.1%     -  155s
     0     0 2391.72076    0 4367 1475.00000 2391.72076  62.2%     -  202s
     0     0 2331.85677    0 4359 1475.00000 2331.85677  58.1%     -  239s
     0     0 2307.09107    0 4387 1475.00000 2307.09107  56.4%     -  264s
     0     0 2293.26842    0 4411 1475.00000 2293.26842  55.5%     -  285s
     0     0 2285.13691    0 4431 1475.00000 2285.13691  54.9%     -  302s
     0     0 2280.29347    0 4448 1475.00000 2280.29347  54.6%     -  316s
     0     0 2259.25668    0 4460 1475.00000 2259.25668  53.2%     -  353s
     0     0 2245.62089    0 4473 1475.00000 2245.62089  52.2%     -  384s
     0     0 2239.14404    0 4488 1475.00000 2239.14404  51.8%     -  405s
     0     0 2234.87336    0 4485 1475.00000 2234.87336  51.5%     -  423s
     0     0 2222.23538    0 4473 1475.00000 2222.23538  50.7%     -  457s
     0     0 2222.23538    0 4463 1475.00000 2222.23538  50.7%     -  458s
     0     2 2222.23538    0 4461 1475.00000 2222.23538  50.7%     -  479s
     1     4 2209.03907    1 4401 1475.00000 2222.23217  50.7%  5173  495s
     3     5 2145.52561    2 4316 1475.00000 2209.03849  49.8%  8564  580s
     4     8 2145.91283    2 4572 1475.00000 2209.03715  49.8% 14150  646s
     7    12 2067.63330    3 4602 1475.00000 2203.56379  49.4% 24969  751s
    11    16 2056.89046    4 4418 1475.00000 2203.56379  49.4% 25012  810s
    15    25 2045.59448    5 4305 1475.00000 2203.56379  49.4% 22219  850s
    24    29 1987.41278    6 4238 1475.00000 2203.56379  49.4% 17510  895s

Cutting planes:
  Cover: 1
  Dual implied bound: 20
  MIR: 19
  Zero half: 120
  RLT: 5300
  BQP: 3816

Explored 28 nodes (874338 simplex iterations) in 900.00 seconds (870.37 work units)
Thread count was 8 (of 8 available processors)

Solution count 10: 1475 1465 1463 ... 1425

Time limit reached
Best objective 1.475000000000e+03, best bound 2.203000000000e+03, gap 49.3559%
